c t wmc
c file mc2022_track2_019.cnf
p cnf 210 1275
1 0
15 16 0
29 30 31 0
43 44 45 46 0
57 58 59 60 61 0
71 72 73 74 75 76 0
85 86 87 88 89 90 91 0
99 100 101 102 103 104 105 106 0
113 114 115 116 117 118 119 120 121 0
127 128 129 130 131 132 133 134 135 136 0
141 142 143 144 145 146 147 148 149 150 151 0
155 156 157 158 159 160 161 162 163 164 165 166 0
169 170 171 172 173 174 175 176 177 178 179 180 181 0
183 184 185 186 187 188 189 190 191 192 193 194 195 196 0
197 198 199 200 201 202 203 204 205 206 207 208 209 210 0
-71 -113 0
-72 -114 0
-73 -115 0
-74 -116 0
-75 -117 0
-76 -118 0
-77 -119 0
-78 -120 0
-79 -121 0
-80 -122 0
-81 -123 0
-82 -124 0
-83 -125 0
-84 -126 0
-85 -155 0
-86 -156 0
-87 -157 0
-88 -158 0
-89 -159 0
-90 -160 0
-91 -161 0
-92 -162 0
-93 -163 0
-94 -164 0
-95 -165 0
-96 -166 0
-97 -167 0
-98 -168 0
-1 -127 0
-2 -128 0
-3 -129 0
-4 -130 0
-5 -131 0
-6 -132 0
-7 -133 0
-8 -134 0
-9 -135 0
-10 -136 0
-11 -137 0
-12 -138 0
-13 -139 0
-14 -140 0
-29 -85 0
-30 -86 0
-31 -87 0
-32 -88 0
-33 -89 0
-34 -90 0
-35 -91 0
-36 -92 0
-37 -93 0
-38 -94 0
-39 -95 0
-40 -96 0
-41 -97 0
-42 -98 0
-15 -57 0
-16 -58 0
-17 -59 0
-18 -60 0
-19 -61 0
-20 -62 0
-21 -63 0
-22 -64 0
-23 -65 0
-24 -66 0
-25 -67 0
-26 -68 0
-27 -69 0
-28 -70 0
-71 -85 0
-72 -86 0
-73 -87 0
-74 -88 0
-75 -89 0
-76 -90 0
-77 -91 0
-78 -92 0
-79 -93 0
-80 -94 0
-81 -95 0
-82 -96 0
-83 -97 0
-84 -98 0
-71 -127 0
-72 -128 0
-73 -129 0
-74 -130 0
-75 -131 0
-76 -132 0
-77 -133 0
-78 -134 0
-79 -135 0
-80 -136 0
-81 -137 0
-82 -138 0
-83 -139 0
-84 -140 0
-1 -43 0
-2 -44 0
-3 -45 0
-4 -46 0
-5 -47 0
-6 -48 0
-7 -49 0
-8 -50 0
-9 -51 0
-10 -52 0
-11 -53 0
-12 -54 0
-13 -55 0
-14 -56 0
-99 -197 0
-100 -198 0
-101 -199 0
-102 -200 0
-103 -201 0
-104 -202 0
-105 -203 0
-106 -204 0
-107 -205 0
-108 -206 0
-109 -207 0
-110 -208 0
-111 -209 0
-112 -210 0
-43 -127 0
-44 -128 0
-45 -129 0
-46 -130 0
-47 -131 0
-48 -132 0
-49 -133 0
-50 -134 0
-51 -135 0
-52 -136 0
-53 -137 0
-54 -138 0
-55 -139 0
-56 -140 0
-15 -71 0
-16 -72 0
-17 -73 0
-18 -74 0
-19 -75 0
-20 -76 0
-21 -77 0
-22 -78 0
-23 -79 0
-24 -80 0
-25 -81 0
-26 -82 0
-27 -83 0
-28 -84 0
-43 -57 0
-44 -58 0
-45 -59 0
-46 -60 0
-47 -61 0
-48 -62 0
-49 -63 0
-50 -64 0
-51 -65 0
-52 -66 0
-53 -67 0
-54 -68 0
-55 -69 0
-56 -70 0
-127 -169 0
-128 -170 0
-129 -171 0
-130 -172 0
-131 -173 0
-132 -174 0
-133 -175 0
-134 -176 0
-135 -177 0
-136 -178 0
-137 -179 0
-138 -180 0
-139 -181 0
-140 -182 0
-183 -197 0
-184 -198 0
-185 -199 0
-186 -200 0
-187 -201 0
-188 -202 0
-189 -203 0
-190 -204 0
-191 -205 0
-192 -206 0
-193 -207 0
-194 -208 0
-195 -209 0
-196 -210 0
-29 -155 0
-30 -156 0
-31 -157 0
-32 -158 0
-33 -159 0
-34 -160 0
-35 -161 0
-36 -162 0
-37 -163 0
-38 -164 0
-39 -165 0
-40 -166 0
-41 -167 0
-42 -168 0
-99 -155 0
-100 -156 0
-101 -157 0
-102 -158 0
-103 -159 0
-104 -160 0
-105 -161 0
-106 -162 0
-107 -163 0
-108 -164 0
-109 -165 0
-110 -166 0
-111 -167 0
-112 -168 0
-15 -141 0
-16 -142 0
-17 -143 0
-18 -144 0
-19 -145 0
-20 -146 0
-21 -147 0
-22 -148 0
-23 -149 0
-24 -150 0
-25 -151 0
-26 -152 0
-27 -153 0
-28 -154 0
-57 -183 0
-58 -184 0
-59 -185 0
-60 -186 0
-61 -187 0
-62 -188 0
-63 -189 0
-64 -190 0
-65 -191 0
-66 -192 0
-67 -193 0
-68 -194 0
-69 -195 0
-70 -196 0
-127 -183 0
-128 -184 0
-129 -185 0
-130 -186 0
-131 -187 0
-132 -188 0
-133 -189 0
-134 -190 0
-135 -191 0
-136 -192 0
-137 -193 0
-138 -194 0
-139 -195 0
-140 -196 0
-71 -169 0
-72 -170 0
-73 -171 0
-74 -172 0
-75 -173 0
-76 -174 0
-77 -175 0
-78 -176 0
-79 -177 0
-80 -178 0
-81 -179 0
-82 -180 0
-83 -181 0
-84 -182 0
-141 -197 0
-142 -198 0
-143 -199 0
-144 -200 0
-145 -201 0
-146 -202 0
-147 -203 0
-148 -204 0
-149 -205 0
-150 -206 0
-151 -207 0
-152 -208 0
-153 -209 0
-154 -210 0
-85 -99 0
-86 -100 0
-87 -101 0
-88 -102 0
-89 -103 0
-90 -104 0
-91 -105 0
-92 -106 0
-93 -107 0
-94 -108 0
-95 -109 0
-96 -110 0
-97 -111 0
-98 -112 0
-1 -183 0
-2 -184 0
-3 -185 0
-4 -186 0
-5 -187 0
-6 -188 0
-7 -189 0
-8 -190 0
-9 -191 0
-10 -192 0
-11 -193 0
-12 -194 0
-13 -195 0
-14 -196 0
-29 -141 0
-30 -142 0
-31 -143 0
-32 -144 0
-33 -145 0
-34 -146 0
-35 -147 0
-36 -148 0
-37 -149 0
-38 -150 0
-39 -151 0
-40 -152 0
-41 -153 0
-42 -154 0
-43 -155 0
-44 -156 0
-45 -157 0
-46 -158 0
-47 -159 0
-48 -160 0
-49 -161 0
-50 -162 0
-51 -163 0
-52 -164 0
-53 -165 0
-54 -166 0
-55 -167 0
-56 -168 0
-15 -155 0
-16 -156 0
-17 -157 0
-18 -158 0
-19 -159 0
-20 -160 0
-21 -161 0
-22 -162 0
-23 -163 0
-24 -164 0
-25 -165 0
-26 -166 0
-27 -167 0
-28 -168 0
-71 -183 0
-72 -184 0
-73 -185 0
-74 -186 0
-75 -187 0
-76 -188 0
-77 -189 0
-78 -190 0
-79 -191 0
-80 -192 0
-81 -193 0
-82 -194 0
-83 -195 0
-84 -196 0
-85 -197 0
-86 -198 0
-87 -199 0
-88 -200 0
-89 -201 0
-90 -202 0
-91 -203 0
-92 -204 0
-93 -205 0
-94 -206 0
-95 -207 0
-96 -208 0
-97 -209 0
-98 -210 0
-155 -169 0
-156 -170 0
-157 -171 0
-158 -172 0
-159 -173 0
-160 -174 0
-161 -175 0
-162 -176 0
-163 -177 0
-164 -178 0
-165 -179 0
-166 -180 0
-167 -181 0
-168 -182 0
-1 -141 0
-2 -142 0
-3 -143 0
-4 -144 0
-5 -145 0
-6 -146 0
-7 -147 0
-8 -148 0
-9 -149 0
-10 -150 0
-11 -151 0
-12 -152 0
-13 -153 0
-14 -154 0
-29 -71 0
-30 -72 0
-31 -73 0
-32 -74 0
-33 -75 0
-34 -76 0
-35 -77 0
-36 -78 0
-37 -79 0
-38 -80 0
-39 -81 0
-40 -82 0
-41 -83 0
-42 -84 0
-1 -57 0
-2 -58 0
-3 -59 0
-4 -60 0
-5 -61 0
-6 -62 0
-7 -63 0
-8 -64 0
-9 -65 0
-10 -66 0
-11 -67 0
-12 -68 0
-13 -69 0
-14 -70 0
-1 -99 0
-2 -100 0
-3 -101 0
-4 -102 0
-5 -103 0
-6 -104 0
-7 -105 0
-8 -106 0
-9 -107 0
-10 -108 0
-11 -109 0
-12 -110 0
-13 -111 0
-14 -112 0
-43 -141 0
-44 -142 0
-45 -143 0
-46 -144 0
-47 -145 0
-48 -146 0
-49 -147 0
-50 -148 0
-51 -149 0
-52 -150 0
-53 -151 0
-54 -152 0
-55 -153 0
-56 -154 0
-29 -57 0
-30 -58 0
-31 -59 0
-32 -60 0
-33 -61 0
-34 -62 0
-35 -63 0
-36 -64 0
-37 -65 0
-38 -66 0
-39 -67 0
-40 -68 0
-41 -69 0
-42 -70 0
-15 -85 0
-16 -86 0
-17 -87 0
-18 -88 0
-19 -89 0
-20 -90 0
-21 -91 0
-22 -92 0
-23 -93 0
-24 -94 0
-25 -95 0
-26 -96 0
-27 -97 0
-28 -98 0
-113 -169 0
-114 -170 0
-115 -171 0
-116 -172 0
-117 -173 0
-118 -174 0
-119 -175 0
-120 -176 0
-121 -177 0
-122 -178 0
-123 -179 0
-124 -180 0
-125 -181 0
-126 -182 0
-43 -71 0
-44 -72 0
-45 -73 0
-46 -74 0
-47 -75 0
-48 -76 0
-49 -77 0
-50 -78 0
-51 -79 0
-52 -80 0
-53 -81 0
-54 -82 0
-55 -83 0
-56 -84 0
-1 -15 0
-2 -16 0
-3 -17 0
-4 -18 0
-5 -19 0
-6 -20 0
-7 -21 0
-8 -22 0
-9 -23 0
-10 -24 0
-11 -25 0
-12 -26 0
-13 -27 0
-14 -28 0
-29 -197 0
-30 -198 0
-31 -199 0
-32 -200 0
-33 -201 0
-34 -202 0
-35 -203 0
-36 -204 0
-37 -205 0
-38 -206 0
-39 -207 0
-40 -208 0
-41 -209 0
-42 -210 0
-99 -169 0
-100 -170 0
-101 -171 0
-102 -172 0
-103 -173 0
-104 -174 0
-105 -175 0
-106 -176 0
-107 -177 0
-108 -178 0
-109 -179 0
-110 -180 0
-111 -181 0
-112 -182 0
-43 -99 0
-44 -100 0
-45 -101 0
-46 -102 0
-47 -103 0
-48 -104 0
-49 -105 0
-50 -106 0
-51 -107 0
-52 -108 0
-53 -109 0
-54 -110 0
-55 -111 0
-56 -112 0
-15 -99 0
-16 -100 0
-17 -101 0
-18 -102 0
-19 -103 0
-20 -104 0
-21 -105 0
-22 -106 0
-23 -107 0
-24 -108 0
-25 -109 0
-26 -110 0
-27 -111 0
-28 -112 0
-57 -169 0
-58 -170 0
-59 -171 0
-60 -172 0
-61 -173 0
-62 -174 0
-63 -175 0
-64 -176 0
-65 -177 0
-66 -178 0
-67 -179 0
-68 -180 0
-69 -181 0
-70 -182 0
-127 -197 0
-128 -198 0
-129 -199 0
-130 -200 0
-131 -201 0
-132 -202 0
-133 -203 0
-134 -204 0
-135 -205 0
-136 -206 0
-137 -207 0
-138 -208 0
-139 -209 0
-140 -210 0
-141 -183 0
-142 -184 0
-143 -185 0
-144 -186 0
-145 -187 0
-146 -188 0
-147 -189 0
-148 -190 0
-149 -191 0
-150 -192 0
-151 -193 0
-152 -194 0
-153 -195 0
-154 -196 0
-85 -141 0
-86 -142 0
-87 -143 0
-88 -144 0
-89 -145 0
-90 -146 0
-91 -147 0
-92 -148 0
-93 -149 0
-94 -150 0
-95 -151 0
-96 -152 0
-97 -153 0
-98 -154 0
-1 -197 0
-2 -198 0
-3 -199 0
-4 -200 0
-5 -201 0
-6 -202 0
-7 -203 0
-8 -204 0
-9 -205 0
-10 -206 0
-11 -207 0
-12 -208 0
-13 -209 0
-14 -210 0
-29 -127 0
-30 -128 0
-31 -129 0
-32 -130 0
-33 -131 0
-34 -132 0
-35 -133 0
-36 -134 0
-37 -135 0
-38 -136 0
-39 -137 0
-40 -138 0
-41 -139 0
-42 -140 0
-99 -127 0
-100 -128 0
-101 -129 0
-102 -130 0
-103 -131 0
-104 -132 0
-105 -133 0
-106 -134 0
-107 -135 0
-108 -136 0
-109 -137 0
-110 -138 0
-111 -139 0
-112 -140 0
-43 -169 0
-44 -170 0
-45 -171 0
-46 -172 0
-47 -173 0
-48 -174 0
-49 -175 0
-50 -176 0
-51 -177 0
-52 -178 0
-53 -179 0
-54 -180 0
-55 -181 0
-56 -182 0
-15 -169 0
-16 -170 0
-17 -171 0
-18 -172 0
-19 -173 0
-20 -174 0
-21 -175 0
-22 -176 0
-23 -177 0
-24 -178 0
-25 -179 0
-26 -180 0
-27 -181 0
-28 -182 0
-113 -141 0
-114 -142 0
-115 -143 0
-116 -144 0
-117 -145 0
-118 -146 0
-119 -147 0
-120 -148 0
-121 -149 0
-122 -150 0
-123 -151 0
-124 -152 0
-125 -153 0
-126 -154 0
-141 -169 0
-142 -170 0
-143 -171 0
-144 -172 0
-145 -173 0
-146 -174 0
-147 -175 0
-148 -176 0
-149 -177 0
-150 -178 0
-151 -179 0
-152 -180 0
-153 -181 0
-154 -182 0
-85 -183 0
-86 -184 0
-87 -185 0
-88 -186 0
-89 -187 0
-90 -188 0
-91 -189 0
-92 -190 0
-93 -191 0
-94 -192 0
-95 -193 0
-96 -194 0
-97 -195 0
-98 -196 0
-169 -197 0
-170 -198 0
-171 -199 0
-172 -200 0
-173 -201 0
-174 -202 0
-175 -203 0
-176 -204 0
-177 -205 0
-178 -206 0
-179 -207 0
-180 -208 0
-181 -209 0
-182 -210 0
-1 -155 0
-2 -156 0
-3 -157 0
-4 -158 0
-5 -159 0
-6 -160 0
-7 -161 0
-8 -162 0
-9 -163 0
-10 -164 0
-11 -165 0
-12 -166 0
-13 -167 0
-14 -168 0
-29 -113 0
-30 -114 0
-31 -115 0
-32 -116 0
-33 -117 0
-34 -118 0
-35 -119 0
-36 -120 0
-37 -121 0
-38 -122 0
-39 -123 0
-40 -124 0
-41 -125 0
-42 -126 0
-15 -29 0
-16 -30 0
-17 -31 0
-18 -32 0
-19 -33 0
-20 -34 0
-21 -35 0
-22 -36 0
-23 -37 0
-24 -38 0
-25 -39 0
-26 -40 0
-27 -41 0
-28 -42 0
-15 -183 0
-16 -184 0
-17 -185 0
-18 -186 0
-19 -187 0
-20 -188 0
-21 -189 0
-22 -190 0
-23 -191 0
-24 -192 0
-25 -193 0
-26 -194 0
-27 -195 0
-28 -196 0
-71 -99 0
-72 -100 0
-73 -101 0
-74 -102 0
-75 -103 0
-76 -104 0
-77 -105 0
-78 -106 0
-79 -107 0
-80 -108 0
-81 -109 0
-82 -110 0
-83 -111 0
-84 -112 0
-85 -169 0
-86 -170 0
-87 -171 0
-88 -172 0
-89 -173 0
-90 -174 0
-91 -175 0
-92 -176 0
-93 -177 0
-94 -178 0
-95 -179 0
-96 -180 0
-97 -181 0
-98 -182 0
-1 -71 0
-2 -72 0
-3 -73 0
-4 -74 0
-5 -75 0
-6 -76 0
-7 -77 0
-8 -78 0
-9 -79 0
-10 -80 0
-11 -81 0
-12 -82 0
-13 -83 0
-14 -84 0
-1 -113 0
-2 -114 0
-3 -115 0
-4 -116 0
-5 -117 0
-6 -118 0
-7 -119 0
-8 -120 0
-9 -121 0
-10 -122 0
-11 -123 0
-12 -124 0
-13 -125 0
-14 -126 0
-29 -43 0
-30 -44 0
-31 -45 0
-32 -46 0
-33 -47 0
-34 -48 0
-35 -49 0
-36 -50 0
-37 -51 0
-38 -52 0
-39 -53 0
-40 -54 0
-41 -55 0
-42 -56 0
-15 -43 0
-16 -44 0
-17 -45 0
-18 -46 0
-19 -47 0
-20 -48 0
-21 -49 0
-22 -50 0
-23 -51 0
-24 -52 0
-25 -53 0
-26 -54 0
-27 -55 0
-28 -56 0
-113 -155 0
-114 -156 0
-115 -157 0
-116 -158 0
-117 -159 0
-118 -160 0
-119 -161 0
-120 -162 0
-121 -163 0
-122 -164 0
-123 -165 0
-124 -166 0
-125 -167 0
-126 -168 0
-43 -85 0
-44 -86 0
-45 -87 0
-46 -88 0
-47 -89 0
-48 -90 0
-49 -91 0
-50 -92 0
-51 -93 0
-52 -94 0
-53 -95 0
-54 -96 0
-55 -97 0
-56 -98 0
-127 -141 0
-128 -142 0
-129 -143 0
-130 -144 0
-131 -145 0
-132 -146 0
-133 -147 0
-134 -148 0
-135 -149 0
-136 -150 0
-137 -151 0
-138 -152 0
-139 -153 0
-140 -154 0
-1 -29 0
-2 -30 0
-3 -31 0
-4 -32 0
-5 -33 0
-6 -34 0
-7 -35 0
-8 -36 0
-9 -37 0
-10 -38 0
-11 -39 0
-12 -40 0
-13 -41 0
-14 -42 0
-29 -183 0
-30 -184 0
-31 -185 0
-32 -186 0
-33 -187 0
-34 -188 0
-35 -189 0
-36 -190 0
-37 -191 0
-38 -192 0
-39 -193 0
-40 -194 0
-41 -195 0
-42 -196 0
-99 -183 0
-100 -184 0
-101 -185 0
-102 -186 0
-103 -187 0
-104 -188 0
-105 -189 0
-106 -190 0
-107 -191 0
-108 -192 0
-109 -193 0
-110 -194 0
-111 -195 0
-112 -196 0
-43 -113 0
-44 -114 0
-45 -115 0
-46 -116 0
-47 -117 0
-48 -118 0
-49 -119 0
-50 -120 0
-51 -121 0
-52 -122 0
-53 -123 0
-54 -124 0
-55 -125 0
-56 -126 0
-15 -113 0
-16 -114 0
-17 -115 0
-18 -116 0
-19 -117 0
-20 -118 0
-21 -119 0
-22 -120 0
-23 -121 0
-24 -122 0
-25 -123 0
-26 -124 0
-27 -125 0
-28 -126 0
-113 -197 0
-114 -198 0
-115 -199 0
-116 -200 0
-117 -201 0
-118 -202 0
-119 -203 0
-120 -204 0
-121 -205 0
-122 -206 0
-123 -207 0
-124 -208 0
-125 -209 0
-126 -210 0
-57 -155 0
-58 -156 0
-59 -157 0
-60 -158 0
-61 -159 0
-62 -160 0
-63 -161 0
-64 -162 0
-65 -163 0
-66 -164 0
-67 -165 0
-68 -166 0
-69 -167 0
-70 -168 0
-127 -155 0
-128 -156 0
-129 -157 0
-130 -158 0
-131 -159 0
-132 -160 0
-133 -161 0
-134 -162 0
-135 -163 0
-136 -164 0
-137 -165 0
-138 -166 0
-139 -167 0
-140 -168 0
-29 -169 0
-30 -170 0
-31 -171 0
-32 -172 0
-33 -173 0
-34 -174 0
-35 -175 0
-36 -176 0
-37 -177 0
-38 -178 0
-39 -179 0
-40 -180 0
-41 -181 0
-42 -182 0
-99 -141 0
-100 -142 0
-101 -143 0
-102 -144 0
-103 -145 0
-104 -146 0
-105 -147 0
-106 -148 0
-107 -149 0
-108 -150 0
-109 -151 0
-110 -152 0
-111 -153 0
-112 -154 0
-43 -183 0
-44 -184 0
-45 -185 0
-46 -186 0
-47 -187 0
-48 -188 0
-49 -189 0
-50 -190 0
-51 -191 0
-52 -192 0
-53 -193 0
-54 -194 0
-55 -195 0
-56 -196 0
-15 -127 0
-16 -128 0
-17 -129 0
-18 -130 0
-19 -131 0
-20 -132 0
-21 -133 0
-22 -134 0
-23 -135 0
-24 -136 0
-25 -137 0
-26 -138 0
-27 -139 0
-28 -140 0
-113 -127 0
-114 -128 0
-115 -129 0
-116 -130 0
-117 -131 0
-118 -132 0
-119 -133 0
-120 -134 0
-121 -135 0
-122 -136 0
-123 -137 0
-124 -138 0
-125 -139 0
-126 -140 0
-57 -197 0
-58 -198 0
-59 -199 0
-60 -200 0
-61 -201 0
-62 -202 0
-63 -203 0
-64 -204 0
-65 -205 0
-66 -206 0
-67 -207 0
-68 -208 0
-69 -209 0
-70 -210 0
-71 -155 0
-72 -156 0
-73 -157 0
-74 -158 0
-75 -159 0
-76 -160 0
-77 -161 0
-78 -162 0
-79 -163 0
-80 -164 0
-81 -165 0
-82 -166 0
-83 -167 0
-84 -168 0
-141 -155 0
-142 -156 0
-143 -157 0
-144 -158 0
-145 -159 0
-146 -160 0
-147 -161 0
-148 -162 0
-149 -163 0
-150 -164 0
-151 -165 0
-152 -166 0
-153 -167 0
-154 -168 0
-85 -113 0
-86 -114 0
-87 -115 0
-88 -116 0
-89 -117 0
-90 -118 0
-91 -119 0
-92 -120 0
-93 -121 0
-94 -122 0
-95 -123 0
-96 -124 0
-97 -125 0
-98 -126 0
-155 -197 0
-156 -198 0
-157 -199 0
-158 -200 0
-159 -201 0
-160 -202 0
-161 -203 0
-162 -204 0
-163 -205 0
-164 -206 0
-165 -207 0
-166 -208 0
-167 -209 0
-168 -210 0
-169 -183 0
-170 -184 0
-171 -185 0
-172 -186 0
-173 -187 0
-174 -188 0
-175 -189 0
-176 -190 0
-177 -191 0
-178 -192 0
-179 -193 0
-180 -194 0
-181 -195 0
-182 -196 0
-29 -99 0
-30 -100 0
-31 -101 0
-32 -102 0
-33 -103 0
-34 -104 0
-35 -105 0
-36 -106 0
-37 -107 0
-38 -108 0
-39 -109 0
-40 -110 0
-41 -111 0
-42 -112 0
-15 -197 0
-16 -198 0
-17 -199 0
-18 -200 0
-19 -201 0
-20 -202 0
-21 -203 0
-22 -204 0
-23 -205 0
-24 -206 0
-25 -207 0
-26 -208 0
-27 -209 0
-28 -210 0
c p weight 1 0.98305308 0
c p weight -1 0.01694692 0
c p weight 2 0.00990269 0
c p weight -2 0.99009731 0
c p weight 3 0.01224139 0
c p weight -3 0.98775861 0
c p weight 4 0.01365399 0
c p weight -4 0.98634601 0
c p weight 5 0.01639116 0
c p weight -5 0.98360884 0
c p weight 6 0.01009037 0
c p weight -6 0.98990963 0
c p weight 7 0.99733834 0
c p weight -7 0.00266166 0
c p weight 8 0.00113246 0
c p weight -8 0.99886754 0
c p weight 9 0.0029613 0
c p weight -9 0.9970387 0
c p weight 10 0.00374658 0
c p weight -10 0.99625342 0
c p weight 11 0.00387682 0
c p weight -11 0.99612318 0
c p weight 12 0.0192967 0
c p weight -12 0.9807033 0
c p weight 13 0.0123589 0
c p weight -13 0.9876411 0
c p weight 14 0.0066611 0
c p weight -14 0.9933389 0
c p weight 15 0.00123674 0
c p weight -15 0.99876326 0
c p weight 16 0.99909861 0
c p weight -16 0.00090139 0
c p weight 17 0.0173835 0
c p weight -17 0.9826165 0
c p weight 18 0.0063428 0
c p weight -18 0.9936572 0
c p weight 19 0.01952458 0
c p weight -19 0.98047542 0
c p weight 20 0.00743318 0
c p weight -20 0.99256682 0
c p weight 21 0.00809712 0
c p weight -21 0.99190288 0
c p weight 22 0.01121946 0
c p weight -22 0.98878054 0
c p weight 23 0.99570841 0
c p weight -23 0.00429159 0
c p weight 24 0.01445712 0
c p weight -24 0.98554288 0
c p weight 25 0.00501156 0
c p weight -25 0.99498844 0
c p weight 26 0.01930484 0
c p weight -26 0.98069516 0
c p weight 27 0.98749043 0
c p weight -27 0.01250957 0
c p weight 28 0.01087341 0
c p weight -28 0.98912659 0
c p weight 29 0.00763462 0
c p weight -29 0.99236538 0
c p weight 30 0.00541195 0
c p weight -30 0.99458805 0
c p weight 31 0.99446171 0
c p weight -31 0.00553829 0
c p weight 32 0.0126043 0
c p weight -32 0.9873957 0
c p weight 33 0.00895096 0
c p weight -33 0.99104904 0
c p weight 34 0.0137318 0
c p weight -34 0.9862682 0
c p weight 35 0.00095642 0
c p weight -35 0.99904358 0
c p weight 36 0.01987544 0
c p weight -36 0.98012456 0
c p weight 37 0.00071491 0
c p weight -37 0.99928509 0
c p weight 38 0.99338203 0
c p weight -38 0.00661797 0
c p weight 39 0.98434037 0
c p weight -39 0.01565963 0
c p weight 40 0.01437001 0
c p weight -40 0.98562999 0
c p weight 41 0.01940428 0
c p weight -41 0.98059572 0
c p weight 42 0.98023073 0
c p weight -42 0.01976927 0
c p weight 43 0.00380554 0
c p weight -43 0.99619446 0
c p weight 44 0.0033955 0
c p weight -44 0.9966045 0
c p weight 45 0.00770597 0
c p weight -45 0.99229403 0
c p weight 46 0.98337205 0
c p weight -46 0.01662795 0
c p weight 47 0.00250912 0
c p weight -47 0.99749088 0
c p weight 48 0.01411903 0
c p weight -48 0.98588097 0
c p weight 49 0.00643344 0
c p weight -49 0.99356656 0
c p weight 50 0.00075136 0
c p weight -50 0.99924864 0
c p weight 51 0.00896514 0
c p weight -51 0.99103486 0
c p weight 52 0.0150293 0
c p weight -52 0.9849707 0
c p weight 53 0.00696232 0
c p weight -53 0.99303768 0
c p weight 54 0.01184622 0
c p weight -54 0.98815378 0
c p weight 55 0.00637803 0
c p weight -55 0.99362197 0
c p weight 56 0.01991105 0
c p weight -56 0.98008895 0
c p weight 57 0.00621356 0
c p weight -57 0.99378644 0
c p weight 58 0.01204422 0
c p weight -58 0.98795578 0
c p weight 59 0.01428913 0
c p weight -59 0.98571087 0
c p weight 60 0.01849897 0
c p weight -60 0.98150103 0
c p weight 61 0.9868135 0
c p weight -61 0.0131865 0
c p weight 62 0.00447237 0
c p weight -62 0.99552763 0
c p weight 63 0.01759808 0
c p weight -63 0.98240192 0
c p weight 64 0.01693013 0
c p weight -64 0.98306987 0
c p weight 65 0.00315639 0
c p weight -65 0.99684361 0
c p weight 66 0.00276142 0
c p weight -66 0.99723858 0
c p weight 67 0.01830939 0
c p weight -67 0.98169061 0
c p weight 68 0.0132666 0
c p weight -68 0.9867334 0
c p weight 69 0.01730767 0
c p weight -69 0.98269233 0
c p weight 70 0.00678324 0
c p weight -70 0.99321676 0
c p weight 71 0.00203794 0
c p weight -71 0.99796206 0
c p weight 72 0.00778679 0
c p weight -72 0.99221321 0
c p weight 73 0.01573159 0
c p weight -73 0.98426841 0
c p weight 74 0.01031505 0
c p weight -74 0.98968495 0
c p weight 75 0.99697776 0
c p weight -75 0.00302224 0
c p weight 76 0.01186421 0
c p weight -76 0.98813579 0
c p weight 77 0.00406028 0
c p weight -77 0.99593972 0
c p weight 78 0.01384211 0
c p weight -78 0.98615789 0
c p weight 79 0.01731304 0
c p weight -79 0.98268696 0
c p weight 80 0.00555647 0
c p weight -80 0.99444353 0
c p weight 81 0.00693557 0
c p weight -81 0.99306443 0
c p weight 82 0.01798727 0
c p weight -82 0.98201273 0
c p weight 83 0.00910447 0
c p weight -83 0.99089553 0
c p weight 84 0.0061023 0
c p weight -84 0.9938977 0
c p weight 85 0.00557043 0
c p weight -85 0.99442957 0
c p weight 86 0.01395762 0
c p weight -86 0.98604238 0
c p weight 87 0.0077063 0
c p weight -87 0.9922937 0
c p weight 88 0.009832 0
c p weight -88 0.990168 0
c p weight 89 0.01640836 0
c p weight -89 0.98359164 0
c p weight 90 0.01354076 0
c p weight -90 0.98645924 0
c p weight 91 0.98497631 0
c p weight -91 0.01502369 0
c p weight 92 0.00716554 0
c p weight -92 0.99283446 0
c p weight 93 0.00564069 0
c p weight -93 0.99435931 0
c p weight 94 0.00248596 0
c p weight -94 0.99751404 0
c p weight 95 0.01728624 0
c p weight -95 0.98271376 0
c p weight 96 0.01459635 0
c p weight -96 0.98540365 0
c p weight 97 0.01390739 0
c p weight -97 0.98609261 0
c p weight 98 0.00987425 0
c p weight -98 0.99012575 0
c p weight 99 0.0124928 0
c p weight -99 0.9875072 0
c p weight 100 0.00230195 0
c p weight -100 0.99769805 0
c p weight 101 0.00433702 0
c p weight -101 0.99566298 0
c p weight 102 0.00541542 0
c p weight -102 0.99458458 0
c p weight 103 0.00796714 0
c p weight -103 0.99203286 0
c p weight 104 0.99521286 0
c p weight -104 0.00478714 0
c p weight 105 0.00925391 0
c p weight -105 0.99074609 0
c p weight 106 0.00037113 0
c p weight -106 0.99962887 0
c p weight 107 0.01482563 0
c p weight -107 0.98517437 0
c p weight 108 0.00051339 0
c p weight -108 0.99948661 0
c p weight 109 0.00891269 0
c p weight -109 0.99108731 0
c p weight 110 0.00489772 0
c p weight -110 0.99510228 0
c p weight 111 0.01682294 0
c p weight -111 0.98317706 0
c p weight 112 0.00228632 0
c p weight -112 0.99771368 0
c p weight 113 0.0161602 0
c p weight -113 0.9838398 0
c p weight 114 0.00119134 0
c p weight -114 0.99880866 0
c p weight 115 0.00364009 0
c p weight -115 0.99635991 0
c p weight 116 0.00813601 0
c p weight -116 0.99186399 0
c p weight 117 0.00458867 0
c p weight -117 0.99541133 0
c p weight 118 0.98849392 0
c p weight -118 0.01150608 0
c p weight 119 0.00792157 0
c p weight -119 0.99207843 0
c p weight 120 0.00959971 0
c p weight -120 0.99040029 0
c p weight 121 0.00851897 0
c p weight -121 0.99148103 0
c p weight 122 0.00574077 0
c p weight -122 0.99425923 0
c p weight 123 0.00110884 0
c p weight -123 0.99889116 0
c p weight 124 0.01373983 0
c p weight -124 0.98626017 0
c p weight 125 0.01810415 0
c p weight -125 0.98189585 0
c p weight 126 0.01881277 0
c p weight -126 0.98118723 0
c p weight 127 0.00527063 0
c p weight -127 0.99472937 0
c p weight 128 0.00987972 0
c p weight -128 0.99012028 0
c p weight 129 0.01381583 0
c p weight -129 0.98618417 0
c p weight 130 0.00064358 0
c p weight -130 0.99935642 0
c p weight 131 0.00675657 0
c p weight -131 0.99324343 0
c p weight 132 0.01706194 0
c p weight -132 0.98293806 0
c p weight 133 0.00708882 0
c p weight -133 0.99291118 0
c p weight 134 0.99002978 0
c p weight -134 0.00997022 0
c p weight 135 0.00796406 0
c p weight -135 0.99203594 0
c p weight 136 0.01788928 0
c p weight -136 0.98211072 0
c p weight 137 0.01208256 0
c p weight -137 0.98791744 0
c p weight 138 0.01734609 0
c p weight -138 0.98265391 0
c p weight 139 0.00993178 0
c p weight -139 0.99006822 0
c p weight 140 0.01983978 0
c p weight -140 0.98016022 0
c p weight 141 0.00209785 0
c p weight -141 0.99790215 0
c p weight 142 0.00561545 0
c p weight -142 0.99438455 0
c p weight 143 0.01634198 0
c p weight -143 0.98365802 0
c p weight 144 0.00086593 0
c p weight -144 0.99913407 0
c p weight 145 0.98969144 0
c p weight -145 0.01030856 0
c p weight 146 0.00827204 0
c p weight -146 0.99172796 0
c p weight 147 0.01503562 0
c p weight -147 0.98496438 0
c p weight 148 0.00775144 0
c p weight -148 0.99224856 0
c p weight 149 0.01733668 0
c p weight -149 0.98266332 0
c p weight 150 0.00345021 0
c p weight -150 0.99654979 0
c p weight 151 0.01091872 0
c p weight -151 0.98908128 0
c p weight 152 0.01134166 0
c p weight -152 0.98865834 0
c p weight 153 0.00761418 0
c p weight -153 0.99238582 0
c p weight 154 0.00073003 0
c p weight -154 0.99926997 0
c p weight 155 0.00455096 0
c p weight -155 0.99544904 0
c p weight 156 0.01671057 0
c p weight -156 0.98328943 0
c p weight 157 0.00681686 0
c p weight -157 0.99318314 0
c p weight 158 0.01961165 0
c p weight -158 0.98038835 0
c p weight 159 0.00400707 0
c p weight -159 0.99599293 0
c p weight 160 0.01098867 0
c p weight -160 0.98901133 0
c p weight 161 0.01963583 0
c p weight -161 0.98036417 0
c p weight 162 0.01413955 0
c p weight -162 0.98586045 0
c p weight 163 0.0118007 0
c p weight -163 0.9881993 0
c p weight 164 0.00373546 0
c p weight -164 0.99626454 0
c p weight 165 0.00082308 0
c p weight -165 0.99917692 0
c p weight 166 0.99326078 0
c p weight -166 0.00673922 0
c p weight 167 0.0106727 0
c p weight -167 0.9893273 0
c p weight 168 0.00961427 0
c p weight -168 0.99038573 0
c p weight 169 0.98979929 0
c p weight -169 0.01020071 0
c p weight 170 0.01456194 0
c p weight -170 0.98543806 0
c p weight 171 0.00414726 0
c p weight -171 0.99585274 0
c p weight 172 0.00334009 0
c p weight -172 0.99665991 0
c p weight 173 0.00415116 0
c p weight -173 0.99584884 0
c p weight 174 0.01659367 0
c p weight -174 0.98340633 0
c p weight 175 0.01568072 0
c p weight -175 0.98431928 0
c p weight 176 0.00377664 0
c p weight -176 0.99622336 0
c p weight 177 0.01804902 0
c p weight -177 0.98195098 0
c p weight 178 0.01309983 0
c p weight -178 0.98690017 0
c p weight 179 0.0192523 0
c p weight -179 0.9807477 0
c p weight 180 0.00124907 0
c p weight -180 0.99875093 0
c p weight 181 0.0162144 0
c p weight -181 0.9837856 0
c p weight 182 0.00189837 0
c p weight -182 0.99810163 0
c p weight 183 0.00766024 0
c p weight -183 0.99233976 0
c p weight 184 0.01483415 0
c p weight -184 0.98516585 0
c p weight 185 0.0130499 0
c p weight -185 0.9869501 0
c p weight 186 0.00971569 0
c p weight -186 0.99028431 0
c p weight 187 0.00280944 0
c p weight -187 0.99719056 0
c p weight 188 0.01687243 0
c p weight -188 0.98312757 0
c p weight 189 0.00575862 0
c p weight -189 0.99424138 0
c p weight 190 0.00731008 0
c p weight -190 0.99268992 0
c p weight 191 0.0171206 0
c p weight -191 0.9828794 0
c p weight 192 0.00300028 0
c p weight -192 0.99699972 0
c p weight 193 0.00941062 0
c p weight -193 0.99058938 0
c p weight 194 0.98494327 0
c p weight -194 0.01505673 0
c p weight 195 0.01053982 0
c p weight -195 0.98946018 0
c p weight 196 0.01818423 0
c p weight -196 0.98181577 0
c p weight 197 0.00999415 0
c p weight -197 0.99000585 0
c p weight 198 0.01941693 0
c p weight -198 0.98058307 0
c p weight 199 0.00879252 0
c p weight -199 0.99120748 0
c p weight 200 0.99425563 0
c p weight -200 0.00574437 0
c p weight 201 0.01603253 0
c p weight -201 0.98396747 0
c p weight 202 0.01324416 0
c p weight -202 0.98675584 0
c p weight 203 0.01742161 0
c p weight -203 0.98257839 0
c p weight 204 0.00089558 0
c p weight -204 0.99910442 0
c p weight 205 0.00236801 0
c p weight -205 0.99763199 0
c p weight 206 0.0147164 0
c p weight -206 0.9852836 0
c p weight 207 0.01550666 0
c p weight -207 0.98449334 0
c p weight 208 0.01622093 0
c p weight -208 0.98377907 0
c p weight 209 0.00787527 0
c p weight -209 0.99212473 0
c p weight 210 0.01319472 0
c p weight -210 0.98680528 0
